c preprocessed version of celar09-wpp, 76 vertices, 421 edges
p td 76 421
1 0
32 0
4 0
0 20
0 34
0 37
0 38
0 36
0 31
0 26
0 33
0 19
0 24
0 22
0 30
0 41
0 46
0 44
0 45
0 23
0 50
0 29
0 47
0 48
0 51
0 56
21 0
1 2
1 3
1 32
1 20
1 31
1 41
1 46
1 44
1 45
1 42
1 50
1 25
1 47
1 51
1 39
1 52
1 49
1 5
3 2
32 2
4 2
5 2
35 2
2 34
2 20
2 37
2 38
2 31
2 44
2 45
2 42
2 40
2 43
2 39
2 49
2 36
2 26
2 33
2 41
2 46
2 50
2 29
2 51
2 52
18 2
17 2
3 4
3 32
3 20
3 37
3 38
3 31
3 41
3 45
3 42
3 50
3 25
3 51
3 39
3 52
3 44
3 43
3 49
5 4
4 19
32 4
35 4
4 20
4 34
4 37
4 38
4 31
4 24
4 41
4 42
4 18
4 50
4 53
4 54
4 25
4 43
4 51
4 52
4 36
4 40
5 6
5 26
5 35
5 20
5 34
5 36
5 33
5 40
5 50
5 52
5 45
5 39
5 49
7 6
69 6
35 6
34 6
27 6
6 25
40 6
8 7
26 7
33 7
55 7
57 7
7 27
7 28
29 7
8 9
8 59
8 61
60 8
8 28
8 27
29 8
10 9
9 59
60 9
9 62
9 61
10 11
60 10
10 69
10 62
10 63
11 12
64 11
11 67
11 69
11 63
11 68
11 66
12 13
12 14
12 15
12 71
67 12
13 14
13 15
13 70
13 71
14 15
14 70
14 71
16 15
15 70
15 71
17 16
16 70
16 71
16 65
17 18
17 65
19 18
18 25
24 18
18 53
18 54
20 19
28 19
19 25
19 23
19 46
19 24
19 53
19 54
21 20
20 26
20 25
32 20
20 33
35 20
20 37
20 38
20 36
20 31
20 24
20 22
20 30
20 41
20 46
20 44
20 45
20 23
20 42
20 40
20 50
20 53
20 54
20 29
20 47
20 51
20 39
20 52
20 49
20 43
21 22
21 56
21 58
22 23
22 30
22 46
22 56
22 47
24 23
30 23
56 23
55 23
57 23
46 23
23 47
24 25
28 24
24 53
24 54
26 25
32 25
35 25
34 25
37 25
38 25
36 25
33 25
40 25
31 25
45 25
41 25
42 25
50 25
53 25
54 25
25 48
25 51
25 52
26 27
32 26
34 26
37 26
38 26
36 26
26 33
26 40
26 47
26 49
27 28
33 27
55 27
57 27
29 27
28 29
30 29
31 29
34 29
55 29
57 29
29 48
31 30
30 46
30 47
32 31
37 31
38 31
31 42
31 44
31 43
31 48
31 39
31 49
31 53
31 54
32 33
32 37
32 38
32 41
32 44
32 45
32 42
32 50
32 53
32 54
32 51
32 39
32 49
32 43
32 52
34 33
37 33
38 33
36 33
33 40
33 47
33 49
35 34
34 37
34 38
34 36
34 40
35 36
35 40
35 39
35 49
37 36
38 36
36 40
37 38
37 39
37 49
37 50
38 39
38 49
38 50
40 39
42 39
45 39
44 39
43 39
39 49
41 40
40 50
40 51
40 49
41 42
41 50
41 51
41 52
42 43
42 50
42 51
42 52
44 43
43 49
44 45
44 49
46 45
45 49
46 47
47 48
50 51
50 52
51 52
53 54
55 56
55 57
57 56
58 59
60 59
59 61
60 61
60 62
62 63
64 63
69 63
65 64
66 64
68 64
64 69
65 66
65 68
66 67
66 68
68 67
70 71
72 73
72 74
72 21
72 58
73 74
73 13
73 14
73 70
74 9
74 13
74 14
74 15
74 11
74 67
74 70
74 62
74 63
74 71
74 12
74 75
74 61
74 16
75 72
75 73
75 58
75 59
75 61
